# Solution for model r10_t18_m5_7
# Finished Task: 16 / 18
# Makespan: 618.0, Total Distance: 667.0, Total Time: 0.1434
# R O S F
0 0 13 0.0 0.0
1 1 17 0.0 0.0
2 2 14 0.0 0.0
3 3 11 0.0 0.0
4 4 25 0.0 0.0
5 5 24 0.0 0.0
6 6 -1 0.0 0.0
7 7 -1 0.0 0.0
8 8 -1 0.0 0.0
9 9 -1 0.0 0.0
10 4 -1 521.0 559.0
11 3 15 228.0 250.0
12 -1 -1 -1.0 -1.0
13 0 16 119.0 147.0
14 2 23 107.0 142.0
15 3 26 342.0 368.0
16 0 18 270.0 306.0
17 1 -1 423.0 454.0
18 0 22 400.0 423.0
19 -1 -1 -1.0 -1.0
20 4 10 347.0 377.0
21 5 -1 391.0 427.0
22 0 27 488.0 521.0
23 2 -1 456.0 480.0
24 5 21 186.0 222.0
25 4 20 306.0 330.0
26 3 -1 526.0 547.0
27 0 -1 598.0 618.0
